c Generated map
c Size: 13 * 13, weights in range: 1 to 10, walls: True, with ratio 0.1
c dim 4 of 4
c
p sp 169 256
c graph contains 169 nodes and 256 arcs
c
a 1 14 2
a 14 1 2
a 4 17 7
a 17 4 7
a 4 5 10
a 5 4 10
a 5 18 1
a 18 5 1
a 5 6 3
a 6 5 3
a 6 19 2
a 19 6 2
a 6 7 1
a 7 6 1
a 7 20 1
a 20 7 1
a 7 8 3
a 8 7 3
a 8 21 4
a 21 8 4
a 8 9 5
a 9 8 5
a 11 24 10
a 24 11 10
a 11 12 3
a 12 11 3
a 12 25 3
a 25 12 3
a 12 13 10
a 13 12 10
a 13 26 6
a 26 13 6
a 14 27 8
a 27 14 8
a 14 15 5
a 15 14 5
a 15 28 1
a 28 15 1
a 17 30 9
a 30 17 9
a 17 18 6
a 18 17 6
a 18 31 1
a 31 18 1
a 18 19 5
a 19 18 5
a 19 32 4
a 32 19 4
a 19 20 4
a 20 19 4
a 20 33 5
a 33 20 5
a 20 21 3
a 21 20 3
a 21 34 10
a 34 21 10
a 24 37 1
a 37 24 1
a 24 25 3
a 25 24 3
a 25 38 8
a 38 25 8
a 25 26 7
a 26 25 7
a 26 39 9
a 39 26 9
a 27 40 7
a 40 27 7
a 27 28 10
a 28 27 10
a 28 41 8
a 41 28 8
a 28 29 5
a 29 28 5
a 29 30 10
a 30 29 10
a 30 43 3
a 43 30 3
a 30 31 10
a 31 30 10
a 31 44 1
a 44 31 1
a 31 32 1
a 32 31 1
a 32 33 10
a 33 32 10
a 33 46 9
a 46 33 9
a 33 34 5
a 34 33 5
a 34 47 1
a 47 34 1
a 34 35 10
a 35 34 10
a 35 48 10
a 48 35 10
a 35 36 2
a 36 35 2
a 36 49 4
a 49 36 4
a 36 37 9
a 37 36 9
a 37 50 3
a 50 37 3
a 37 38 10
a 38 37 10
a 38 51 8
a 51 38 8
a 38 39 6
a 39 38 6
a 40 53 4
a 53 40 4
a 40 41 7
a 41 40 7
a 41 54 6
a 54 41 6
a 43 56 6
a 56 43 6
a 43 44 1
a 44 43 1
a 44 57 10
a 57 44 10
a 46 59 7
a 59 46 7
a 46 47 8
a 47 46 8
a 47 60 1
a 60 47 1
a 47 48 5
a 48 47 5
a 48 61 6
a 61 48 6
a 48 49 8
a 49 48 8
a 49 62 9
a 62 49 9
a 49 50 8
a 50 49 8
a 50 63 7
a 63 50 7
a 50 51 1
a 51 50 1
a 51 64 3
a 64 51 3
a 53 54 7
a 54 53 7
a 54 67 3
a 67 54 3
a 54 55 5
a 55 54 5
a 55 56 2
a 56 55 2
a 56 69 7
a 69 56 7
a 56 57 9
a 57 56 9
a 57 70 4
a 70 57 4
a 57 58 8
a 58 57 8
a 58 71 6
a 71 58 6
a 58 59 8
a 59 58 8
a 59 72 5
a 72 59 5
a 59 60 1
a 60 59 1
a 60 73 5
a 73 60 5
a 60 61 10
a 61 60 10
a 61 74 7
a 74 61 7
a 61 62 4
a 62 61 4
a 62 75 2
a 75 62 2
a 62 63 1
a 63 62 1
a 63 76 10
a 76 63 10
a 63 64 2
a 64 63 2
a 64 77 9
a 77 64 9
a 64 65 5
a 65 64 5
a 65 78 10
a 78 65 10
a 67 80 4
a 80 67 4
a 69 82 1
a 82 69 1
a 69 70 10
a 70 69 10
a 70 83 10
a 83 70 10
a 70 71 4
a 71 70 4
a 71 84 7
a 84 71 7
a 71 72 6
a 72 71 6
a 72 85 8
a 85 72 8
a 72 73 7
a 73 72 7
a 73 86 1
a 86 73 1
a 73 74 2
a 74 73 2
a 74 87 1
a 87 74 1
a 74 75 3
a 75 74 3
a 75 88 6
a 88 75 6
a 75 76 8
a 76 75 8
a 76 89 5
a 89 76 5
a 76 77 10
a 77 76 10
a 77 90 8
a 90 77 8
a 77 78 5
a 78 77 5
a 78 91 5
a 91 78 5
a 79 92 1
a 92 79 1
a 79 80 3
a 80 79 3
a 80 93 4
a 93 80 4
a 80 81 5
a 81 80 5
a 81 94 6
a 94 81 6
a 81 82 6
a 82 81 6
a 82 95 1
a 95 82 1
a 82 83 1
a 83 82 1
a 83 96 3
a 96 83 3
a 83 84 9
a 84 83 9
a 84 97 2
a 97 84 2
a 84 85 9
a 85 84 9
a 85 98 1
a 98 85 1
a 85 86 8
a 86 85 8
a 86 99 4
a 99 86 4
a 86 87 8
a 87 86 8
a 87 100 7
a 100 87 7
a 87 88 7
a 88 87 7
a 88 101 8
a 101 88 8
a 88 89 3
a 89 88 3
a 89 102 9
a 102 89 9
a 89 90 7
a 90 89 7
a 90 103 3
a 103 90 3
a 90 91 1
a 91 90 1
a 91 104 1
a 104 91 1
a 92 93 9
a 93 92 9
a 93 94 7
a 94 93 7
a 94 107 4
a 107 94 4
a 94 95 10
a 95 94 10
a 95 108 8
a 108 95 8
a 95 96 4
a 96 95 4
a 96 97 3
a 97 96 3
a 97 110 8
a 110 97 8
a 97 98 7
a 98 97 7
a 98 111 8
a 111 98 8
a 98 99 8
a 99 98 8
a 99 112 5
a 112 99 5
a 99 100 1
a 100 99 1
a 100 113 4
a 113 100 4
a 100 101 5
a 101 100 5
a 101 114 4
a 114 101 4
a 101 102 5
a 102 101 5
a 102 115 6
a 115 102 6
a 102 103 6
a 103 102 6
a 103 116 10
a 116 103 10
a 103 104 9
a 104 103 9
a 104 117 7
a 117 104 7
a 107 108 4
a 108 107 4
a 108 121 7
a 121 108 7
a 110 123 3
a 123 110 3
a 110 111 5
a 111 110 5
a 111 124 8
a 124 111 8
a 111 112 3
a 112 111 3
a 112 125 1
a 125 112 1
a 112 113 2
a 113 112 2
a 113 126 10
a 126 113 10
a 113 114 1
a 114 113 1
a 114 127 7
a 127 114 7
a 114 115 7
a 115 114 7
a 115 128 5
a 128 115 5
a 115 116 4
a 116 115 4
a 116 129 7
a 129 116 7
a 116 117 2
a 117 116 2
a 117 130 10
a 130 117 10
a 118 131 9
a 131 118 9
a 118 119 6
a 119 118 6
a 119 132 4
a 132 119 4
a 121 134 8
a 134 121 8
a 123 136 3
a 136 123 3
a 123 124 1
a 124 123 1
a 124 137 10
a 137 124 10
a 124 125 8
a 125 124 8
a 125 138 9
a 138 125 9
a 125 126 7
a 126 125 7
a 126 139 9
a 139 126 9
a 126 127 10
a 127 126 10
a 127 140 7
a 140 127 7
a 127 128 10
a 128 127 10
a 128 141 3
a 141 128 3
a 128 129 9
a 129 128 9
a 129 142 9
a 142 129 9
a 129 130 4
a 130 129 4
a 130 143 6
a 143 130 6
a 131 144 5
a 144 131 5
a 131 132 8
a 132 131 8
a 132 145 5
a 145 132 5
a 132 133 7
a 133 132 7
a 133 146 6
a 146 133 6
a 133 134 10
a 134 133 10
a 134 135 1
a 135 134 1
a 135 148 1
a 148 135 1
a 135 136 6
a 136 135 6
a 136 149 5
a 149 136 5
a 136 137 10
a 137 136 10
a 137 150 5
a 150 137 5
a 137 138 5
a 138 137 5
a 138 151 10
a 151 138 10
a 138 139 4
a 139 138 4
a 139 152 7
a 152 139 7
a 139 140 10
a 140 139 10
a 140 153 10
a 153 140 10
a 140 141 4
a 141 140 4
a 141 154 10
a 154 141 10
a 141 142 8
a 142 141 8
a 142 155 8
a 155 142 8
a 142 143 9
a 143 142 9
a 143 156 3
a 156 143 3
a 144 157 9
a 157 144 9
a 144 145 3
a 145 144 3
a 145 158 9
a 158 145 9
a 145 146 2
a 146 145 2
a 146 159 10
a 159 146 10
a 148 161 2
a 161 148 2
a 148 149 10
a 149 148 10
a 149 162 4
a 162 149 4
a 149 150 4
a 150 149 4
a 150 163 1
a 163 150 1
a 150 151 1
a 151 150 1
a 151 164 10
a 164 151 10
a 151 152 2
a 152 151 2
a 152 165 8
a 165 152 8
a 152 153 5
a 153 152 5
a 153 166 8
a 166 153 8
a 153 154 8
a 154 153 8
a 154 167 6
a 167 154 6
a 154 155 6
a 155 154 6
a 155 168 7
a 168 155 7
a 155 156 1
a 156 155 1
a 156 169 7
a 169 156 7
a 157 158 9
a 158 157 9
a 158 159 5
a 159 158 5
a 159 160 6
a 160 159 6
a 160 161 5
a 161 160 5
a 161 162 7
a 162 161 7
a 162 163 7
a 163 162 7
a 163 164 2
a 164 163 2
a 164 165 9
a 165 164 9
a 165 166 2
a 166 165 2
a 166 167 9
a 167 166 9
a 167 168 9
a 168 167 9
a 168 169 7
a 169 168 7
